33D32945 STP File, STP Format Version 1.0

SECTION Comments
Name "cube_n13_d2_s18"
Problem "Euclidean Steiner Tree Problem"
Remark "Generated with STPGenerator. 2 dimensions."
END

SECTION Graph
Nodes 13
END

SECTION Coordinates
DD 0 0.9290727782 0.9129959489
DD 1 0.9238626137 0.2359872904
DD 2 0.7857724450 0.9465178470
DD 3 0.9674219824 0.2784534135
DD 4 0.4652112594 0.4872422654
DD 5 0.1321992586 0.3741906497
DD 6 0.6797411119 0.8863195306
DD 7 0.8013723990 0.2213446718
DD 8 0.2145956132 0.2002614784
DD 9 0.9167352235 0.3484674186
DD 10 0.7351341866 0.9038881473
DD 11 0.5736667344 0.0998372487
DD 12 0.0471116267 0.0357322353
END
